c colouring generated by benchmark framework
p edge 121 1980
v 1 6
v 2 7
v 3 2
v 4 3
v 5 8
v 6 4
v 7 9
v 8 5
v 9 0
v 10 10
v 11 11
v 12 2
v 13 11
v 14 8
v 15 4
v 16 9
v 17 12
v 18 10
v 19 3
v 20 7
v 21 5
v 22 6
v 23 10
v 24 4
v 25 7
v 26 5
v 27 1
v 28 8
v 29 2
v 30 0
v 31 12
v 32 9
v 33 3
v 34 9
v 35 6
v 36 0
v 37 10
v 38 2
v 39 5
v 40 12
v 41 4
v 42 8
v 43 11
v 44 1
v 45 1
v 46 3
v 47 5
v 48 6
v 49 4
v 50 9
v 51 0
v 52 11
v 53 10
v 54 7
v 55 8
v 56 7
v 57 0
v 58 12
v 59 8
v 60 11
v 61 1
v 62 3
v 63 9
v 64 4
v 65 6
v 66 5
v 67 4
v 68 9
v 69 6
v 70 1
v 71 3
v 72 7
v 73 8
v 74 10
v 75 11
v 76 2
v 77 0
v 78 11
v 79 1
v 80 3
v 81 2
v 82 10
v 83 0
v 84 5
v 85 12
v 86 6
v 87 8
v 88 7
v 89 12
v 90 2
v 91 9
v 92 0
v 93 7
v 94 11
v 95 4
v 96 8
v 97 5
v 98 1
v 99 10
v 100 5
v 101 10
v 102 1
v 103 12
v 104 6
v 105 3
v 106 7
v 107 2
v 108 9
v 109 0
v 110 4
v 111 8
v 112 12
v 113 4
v 114 9
v 115 5
v 116 10
v 117 11
v 118 6
v 119 1
v 120 3
v 121 2
